20	5
0	9	6	7	9	8	1	5	2	3	4
1	4	18	14	16	15
2	4	14	17	13	20
3	1	14
4	4	16	10	20	14
5	3	14	10	11
6	3	15	17	16
7	3	12	10	14
8	3	12	18	17
9	3	18	20	19
10	1	15
11	1	21
12	1	21
13	1	21
14	1	21
15	1	21
16	1	21
17	1	21
18	1	21
19	1	21
20	1	21
21	0
0	0	0	0	0	0	0
1	4	5	1	3	3	3
2	2	3	4	2	1	4
3	3	1	3	5	2	5
4	9	1	2	5	4	4
5	10	5	5	2	1	4
6	2	4	5	2	5	4
7	6	5	4	4	1	1
8	9	4	5	5	1	2
9	5	5	3	1	1	5
10	7	3	3	3	4	5
11	3	2	5	1	3	4
12	8	1	1	1	1	1
13	2	4	1	5	4	3
14	6	2	1	1	3	5
15	10	4	2	2	5	1
16	3	3	5	1	1	2
17	4	3	2	3	1	2
18	9	3	1	1	1	2
19	1	3	1	5	5	1
20	9	3	2	1	5	3
21	0	0	0	0	0	0
17	17	17	12	16
